1
1000
134
250 10
251 6
252 7
253 7
254 5
255 6
256 1
257 1
258 5
259 6
260 3
261 2
262 3
263 3
264 3
265 1
266 1
267 2
268 1
269 4
271 5
272 3
273 2
274 4
275 3
276 3
277 1
278 1
280 1
281 2
282 2
283 1
287 3
288 1
290 1
291 1
292 1
293 2
294 3
295 1
297 1
298 3
299 1
301 1
302 1
303 1
305 1
307 1
308 2
310 1
312 1
313 1
314 2
315 1
318 2
320 1
325 1
329 1
330 1
333 2
336 1
337 1
342 1
344 1
346 1
347 1
350 4
351 2
352 1
355 2
356 2
357 3
359 1
361 1
362 1
363 2
365 1
366 5
367 2
370 2
372 1
376 1
382 1
385 1
386 1
392 3
393 1
395 1
397 1
400 1
404 1
405 1
406 1
407 1
410 1
412 1
414 1
415 1
419 2
420 1
421 1
422 1
426 2
430 1
434 1
437 1
439 1
441 2
444 1
445 2
446 2
450 1
462 1
464 1
466 1
469 1
470 1
471 1
472 1
473 2
474 1
478 1
479 1
480 2
481 1
485 4
488 1
490 1
491 2
492 1
495 2
496 1
497 3
498 1
